Rodando pra 1h

Optimize a model with 360039 rows, 539130 columns and 6278614 nonzeros
Coefficient statistics:
  Matrix range    [1e+00, 1e+04]
  Objective range [3e-01, 3e-01]
  Bounds range    [1e+00, 1e+04]
  RHS range       [1e+00, 1e+04]
Presolve removed 1 rows and 1 columns (presolve time = 6s) ...
Presolve removed 2 rows and 2 columns (presolve time = 11s) ...
Presolve removed 2 rows and 2 columns (presolve time = 16s) ...
Presolve removed 2 rows and 2 columns (presolve time = 21s) ...
Presolve removed 2 rows and 2 columns (presolve time = 26s) ...
Presolve removed 2 rows and 2 columns (presolve time = 31s) ...
Presolve removed 2 rows and 2 columns (presolve time = 35s) ...
Presolve removed 2 rows and 2 columns (presolve time = 43s) ...
Presolve removed 2 rows and 2 columns (presolve time = 52s) ...
Presolve removed 2 rows and 2 columns
Presolve time: 52.24s
Presolved: 360037 rows, 539128 columns, 6278605 nonzeros
Variable types: 359400 continuous, 179728 integer (179725 binary)
Optimize a model with 360037 rows, 539128 columns and 6278605 nonzeros
Coefficient statistics:
  Matrix range    [1e+00, 1e+04]
  Objective range [3e-01, 3e-01]
  Bounds range    [1e+00, 1e+04]
  RHS range       [1e+00, 2e+04]
Presolved: 360037 rows, 539128 columns, 6278605 nonzeros


Root simplex log...

Iteration    Objective       Primal Inf.    Dual Inf.      Time
       0    0.0000000e+00   1.804585e+03   0.000000e+00     75s
    1220    0.0000000e+00   0.000000e+00   0.000000e+00     76s

Root relaxation: objective 0.000000e+00, 1220 iterations, 6.08 seconds

    Nodes    |    Current Node    |     Objective Bounds      |     Work
 Expl Unexpl |  Obj  Depth IntInf | Incumbent    BestBd   Gap | It/Node Time

     0     0    0.00000    0  612          -    0.00000      -     - 3600s

Explored 0 nodes (275531 simplex iterations) in 3600.45 seconds
Thread count was 1 (of 4 available processors)

Time limit reached
Best objective -, best bound 0.000000000000e+00, gap -
Tempo: 3594.67 segundos

Error code = 10004
Var::get
